164
10000
4669
6434
985
4359
239
3427
6340
317
6230
6052
7431
3897
5267
2983
3886
730
4525
982
702
589
4350
4168
1772
6443
1373
7094
4626
2147
796
4338
7475
3463
5650
4259
270
6664
1007
4408
3869
840
485
1156
355
617
3016
1645
3557
3205
301
565
1887
4435
2811
229
2844
245
6189
3566
547
4050
5279
428
887
328
3177
995
4643
4111
37
2293
6103
2863
3072
1904
222
2887
1126
1809
2361
540
4012
864
4154
638
4192
7255
4628
5276
2618
367
1498
4638
5418
3841
807
1815
237
672
3415
535
3425
932
1600
793
3509
949
3143
1188
1557
98
5372
592
875
1900
3934
5828
4721
569
5408
1610
4771
95
4215
2525
1630
3409
6053
3083
502
7160
1581
4226
43
746
3825
4056
2540
2783
4600
461
41
1776
643
5163
3811
323
1070
1023
5010
911
383
4807
2970
1768
5328
1726
1833
6131
2031
1833
3083
2987
335
1
